(set-logic QF_S)
(set-option :strings-exp true)
(set-option :produce-models true)
(declare-fun sigmaStar_0 () String)
(declare-fun literal_14 () String)
(assert (= literal_14 "\x3c\x64\x69\x76\x20\x61\x6c\x69\x67\x6e\x3d\x22\x63\x65\x6e\x74\x65\x72\x22\x3e\x3c\x61\x20\x68\x72\x65\x66\x3d\x22\x2f\x62\x6c\x6f\x67\x2f\x65\x64\x69\x74\x2e\x70\x68\x70\x22\x3e\x61\x64\x64\x6e\x65\x77\x65\x6e\x74\x72\x79\x3c\x2f\x61\x3e\x3c\x2f\x64\x69\x76\x3e"))
(assert (str.in.re literal_14 (re.++ (re.* re.allchar) (re.++ (str.to.re "\x5c\x3c\x53\x43\x52\x49\x50\x54") (re.* re.allchar)))))
(check-sat)
(get-model)
